20	5
0	4	3	1	2	13
1	1	17
2	1	14
3	1	15
4	1	10
5	0
6	2	19	11
7	1	6
8	1	18
9	2	16	17
10	0
11	3	20	5	8
12	1	4
13	2	7	4
14	0
15	1	12
16	1	21
17	1	21
18	1	21
19	1	21
20	1	21
21	0
0	0	0	0	0	0	0
1	2	1	4	3	1	5
2	2	5	1	3	5	3
3	2	4	3	4	4	4
4	6	5	3	5	5	4
5	5	2	3	2	2	1
6	10	3	3	3	4	3
7	6	2	3	3	1	2
8	6	1	4	2	4	1
9	1	5	3	3	4	4
10	3	1	5	2	2	1
11	9	1	5	4	5	5
12	5	1	4	5	2	5
13	10	4	1	3	1	5
14	10	2	4	4	3	4
15	8	2	4	4	3	3
16	8	5	3	3	1	2
17	3	4	2	3	1	5
18	9	3	1	3	1	3
19	6	2	3	3	3	4
20	1	4	4	5	2	2
21	0	0	0	0	0	0
5	5	5	5	5
